NAME : Europe15
COMMENT : Popular cities in Europe with lat and long.
TYPE : TSP
DIMENSION : 15
EDGE_WEIGHT_TYPE : EUC_2D
NODE_COORD_SECTION
1 52.5200 13.4050
2 47.5162 14.5501
3 48.8566 2.3522
4 52.4000 4.9000
5 51.9000 4.5000
6 52.1000 4.3000
7 53.2000 6.6000
8 51.2000 4.4000
9 50.9000 4.4000
10 51.1000 3.7000
11 51.2000 2.9000
12 51.0000 1.9000
13 47.3769 8.5417
14 55.7000 12.6000
15 51.5074 -0.1278

